c colouring generated by benchmark framework
p edge 120 638
v 1 0
v 2 3
v 3 6
v 4 5
v 5 1
v 6 1
v 7 0
v 8 8
v 9 1
v 10 6
v 11 6
v 12 2
v 13 5
v 14 7
v 15 1
v 16 7
v 17 2
v 18 6
v 19 1
v 20 4
v 21 2
v 22 0
v 23 6
v 24 0
v 25 7
v 26 6
v 27 5
v 28 5
v 29 0
v 30 2
v 31 3
v 32 2
v 33 0
v 34 3
v 35 7
v 36 8
v 37 5
v 38 2
v 39 8
v 40 4
v 41 8
v 42 3
v 43 3
v 44 7
v 45 6
v 46 2
v 47 1
v 48 5
v 49 1
v 50 2
v 51 5
v 52 7
v 53 5
v 54 4
v 55 0
v 56 5
v 57 8
v 58 0
v 59 0
v 60 4
v 61 0
v 62 2
v 63 4
v 64 3
v 65 6
v 66 8
v 67 8
v 68 7
v 69 8
v 70 4
v 71 7
v 72 8
v 73 1
v 74 1
v 75 4
v 76 2
v 77 6
v 78 5
v 79 6
v 80 6
v 81 3
v 82 7
v 83 3
v 84 0
v 85 7
v 86 0
v 87 3
v 88 0
v 89 3
v 90 2
v 91 4
v 92 8
v 93 1
v 94 3
v 95 3
v 96 8
v 97 5
v 98 3
v 99 3
v 100 2
v 101 5
v 102 8
v 103 1
v 104 6
v 105 5
v 106 6
v 107 6
v 108 4
v 109 4
v 110 8
v 111 0
v 112 7
v 113 2
v 114 6
v 115 4
v 116 7
v 117 4
v 118 8
v 119 5
v 120 1
